
n_res = 8;
rcap = [23, 18, 19, 23, 672, 747, 588, 690];
rtype = [1, 1, 1, 1, 2, 2, 2, 2];
n_tasks = 50;
modes =  [{1, 2, 3}, {4, 5, 6}, {7, 8, 9}, {10, 11, 12}, {13, 14, 15}, {16, 17, 18}, {19, 20, 21}, {22, 23, 24}, {25, 26, 27}, {28, 29, 30}, {31, 32, 33}, {34, 35, 36}, {37, 38, 39}, {40, 41, 42}, {43, 44, 45}, {46, 47, 48}, {49, 50, 51}, {52, 53, 54}, {55, 56, 57}, {58, 59, 60}, {61, 62, 63}, {64, 65, 66}, {67, 68, 69}, {70, 71, 72}, {73, 74, 75}, {76, 77, 78}, {79, 80, 81}, {82, 83, 84}, {85, 86, 87}, {88, 89, 90}, {91, 92, 93}, {94, 95, 96}, {97, 98, 99}, {100, 101, 102}, {103, 104, 105}, {106, 107, 108}, {109, 110, 111}, {112, 113, 114}, {115, 116, 117}, {118, 119, 120}, {121, 122, 123}, {124, 125, 126}, {127, 128, 129}, {130, 131, 132}, {133, 134, 135}, {136, 137, 138}, {139, 140, 141}, {142, 143, 144}, {145, 146, 147}, {148, 149, 150}];
succ =  [{14, 11, 3}, {17, 14, 13, 6}, {25, 21, 17, 16, 12, 10}, {10, 6}, {25, 21, 14, 12}, {26, 25, 21, 16, 15}, {26, 25, 21, 16, 15}, {26, 25, 21, 17, 15}, {26, 25, 21, 18, 15}, {26, 18, 15}, {25, 12}, {27, 26, 22, 19}, {27, 25, 21, 18}, {26, 16}, {27, 22, 19}, {27, 18}, {18}, {20}, {20}, {36, 32, 24, 23}, {36, 35, 33, 32, 31, 30, 28}, {38, 36, 35, 33, 30, 29}, {35, 33, 28}, {42, 31, 30}, {31, 29}, {39, 38, 37, 36, 35}, {42, 35, 32}, {38, 29}, {42, 40, 39, 37}, {39, 37, 34}, {38, 37, 34}, {39, 37, 34}, {50, 45, 43, 42}, {50, 43, 40}, {50, 43, 40}, {50, 43, 42}, {45, 41}, {43, 40}, {50, 49, 48, 45, 44}, {49, 48, 45, 44}, {48, 47, 43}, {48, 47, 44}, {49, 44}, {46}, {47}, {}, {}, {}, {}, {}];
n_opt = 150;
dur = [1, 8, 26, 3, 9, 13, 3, 8, 16, 13, 16, 17, 7, 16, 18, 14, 22, 27, 13, 23, 26, 6, 14, 15, 6, 7, 16, 2, 8, 30, 3, 6, 26, 4, 13, 17, 11, 25, 30, 5, 15, 25, 1, 12, 13, 3, 16, 20, 8, 14, 27, 2, 16, 26, 3, 15, 29, 9, 15, 19, 20, 21, 29, 5, 20, 23, 16, 19, 25, 12, 13, 24, 15, 25, 29, 8, 11, 19, 10, 21, 26, 5, 12, 27, 17, 23, 28, 8, 15, 29, 4, 6, 23, 7, 22, 28, 11, 12, 25, 2, 5, 14, 16, 18, 26, 4, 14, 23, 11, 22, 24, 23, 24, 28, 3, 26, 30, 7, 14, 15, 2, 12, 23, 1, 22, 25, 2, 4, 24, 5, 9, 16, 15, 20, 27, 1, 8, 19, 19, 23, 25, 5, 6, 17, 1, 18, 19, 2, 3, 26];
rreq = [|2, 2, 2, 5, 4, 4, 5, 3, 3, 1, 1, 1, 3, 3, 1, 5, 4, 3, 5, 5, 5, 4, 4, 4, 4, 4, 3, 5, 4, 3, 3, 3, 2, 3, 3, 3, 4, 2, 1, 1, 1, 1, 4, 3, 1, 4, 2, 2, 4, 3, 3, 3, 3, 1, 3, 3, 3, 2, 2, 2, 3, 3, 3, 3, 3, 3, 4, 4, 4, 5, 4, 4, 2, 2, 2, 4, 2, 2, 3, 3, 3, 4, 2, 2, 4, 4, 3, 2, 2, 1, 2, 1, 1, 5, 4, 4, 4, 2, 2, 4, 2, 2, 3, 3, 2, 2, 2, 1, 3, 3, 3, 4, 3, 2, 1, 1, 1, 5, 4, 2, 5, 5, 5, 1, 1, 1, 4, 4, 4, 3, 2, 1, 3, 3, 3, 3, 3, 3, 4, 3, 2, 3, 2, 1, 4, 4, 4, 4, 3, 2
 |4, 4, 3, 2, 2, 2, 2, 2, 2, 2, 1, 1, 4, 2, 2, 1, 1, 1, 4, 3, 3, 1, 1, 1, 2, 1, 1, 2, 1, 1, 5, 5, 5, 1, 1, 1, 3, 3, 3, 3, 3, 3, 3, 2, 2, 4, 2, 2, 1, 1, 1, 4, 3, 1, 2, 1, 1, 3, 2, 2, 4, 4, 3, 4, 3, 2, 5, 4, 3, 4, 3, 3, 4, 4, 4, 1, 1, 1, 3, 2, 2, 2, 2, 1, 3, 2, 2, 5, 4, 4, 4, 4, 4, 4, 4, 4, 2, 1, 1, 4, 4, 4, 4, 4, 3, 1, 1, 1, 5, 4, 4, 4, 2, 2, 3, 2, 2, 2, 2, 2, 4, 3, 2, 3, 2, 2, 3, 3, 3, 5, 3, 3, 3, 3, 3, 4, 2, 2, 5, 4, 4, 3, 2, 1, 5, 4, 3, 2, 1, 1
 |5, 4, 3, 2, 1, 1, 5, 4, 4, 2, 2, 2, 1, 1, 1, 4, 2, 1, 2, 2, 1, 3, 1, 1, 3, 3, 3, 3, 1, 1, 2, 2, 2, 2, 2, 2, 5, 2, 1, 2, 2, 1, 2, 1, 1, 4, 3, 2, 4, 3, 2, 3, 3, 2, 3, 3, 2, 4, 3, 3, 4, 4, 4, 3, 3, 2, 4, 3, 3, 4, 3, 3, 3, 2, 1, 4, 3, 3, 4, 3, 3, 2, 1, 1, 2, 2, 2, 4, 4, 2, 3, 2, 2, 5, 5, 5, 4, 4, 4, 4, 4, 3, 3, 2, 2, 4, 4, 4, 5, 3, 3, 3, 1, 1, 4, 2, 2, 3, 3, 3, 1, 1, 1, 2, 2, 2, 5, 4, 2, 5, 3, 2, 5, 3, 1, 3, 2, 2, 4, 3, 2, 2, 2, 2, 5, 3, 2, 2, 2, 2
 |4, 3, 2, 3, 3, 1, 4, 4, 3, 3, 3, 3, 4, 2, 1, 2, 2, 1, 5, 4, 3, 3, 3, 3, 4, 3, 3, 3, 3, 3, 2, 1, 1, 3, 3, 3, 5, 5, 5, 4, 3, 2, 3, 3, 3, 3, 3, 2, 3, 2, 1, 3, 2, 1, 2, 1, 1, 4, 3, 3, 4, 3, 2, 4, 3, 2, 4, 3, 1, 3, 3, 3, 2, 1, 1, 3, 3, 2, 3, 2, 1, 3, 3, 3, 3, 3, 3, 5, 4, 4, 3, 2, 2, 4, 2, 2, 3, 3, 3, 3, 1, 1, 5, 3, 2, 5, 5, 5, 4, 3, 3, 5, 4, 3, 4, 4, 4, 3, 2, 2, 3, 2, 2, 3, 2, 2, 3, 3, 2, 4, 4, 3, 3, 3, 3, 2, 2, 2, 3, 2, 2, 5, 4, 3, 3, 3, 3, 2, 2, 1
 |20, 19, 19, 24, 18, 12, 4, 3, 3, 23, 16, 10, 20, 14, 12, 25, 14, 12, 20, 9, 8, 25, 25, 25, 25, 22, 21, 13, 13, 11, 16, 11, 7, 25, 25, 23, 15, 15, 7, 22, 18, 14, 15, 13, 6, 30, 25, 18, 9, 5, 5, 15, 6, 4, 28, 27, 26, 22, 21, 20, 16, 14, 9, 29, 25, 22, 21, 17, 12, 1, 1, 1, 20, 17, 15, 10, 6, 5, 4, 4, 3, 24, 15, 10, 20, 15, 12, 5, 4, 4, 22, 16, 14, 26, 22, 15, 22, 18, 11, 12, 12, 10, 16, 9, 8, 16, 10, 10, 12, 11, 11, 14, 9, 4, 22, 20, 11, 21, 16, 8, 24, 20, 4, 21, 16, 11, 30, 30, 30, 18, 11, 11, 24, 22, 21, 19, 15, 11, 20, 16, 12, 17, 15, 11, 11, 9, 7, 14, 12, 12
 |15, 12, 7, 14, 13, 13, 27, 26, 26, 27, 26, 25, 13, 13, 6, 23, 23, 23, 28, 28, 27, 21, 19, 15, 19, 19, 15, 9, 9, 9, 24, 21, 15, 24, 23, 19, 5, 4, 3, 20, 16, 16, 24, 11, 6, 22, 18, 16, 11, 7, 2, 11, 10, 8, 18, 14, 11, 24, 23, 23, 27, 19, 19, 13, 11, 9, 22, 16, 14, 27, 21, 16, 22, 19, 17, 9, 9, 9, 23, 21, 21, 25, 22, 16, 18, 10, 4, 20, 20, 19, 29, 29, 29, 21, 18, 9, 13, 12, 8, 11, 9, 7, 17, 12, 8, 12, 11, 9, 13, 13, 13, 27, 24, 22, 16, 16, 9, 23, 19, 12, 11, 6, 3, 15, 13, 6, 27, 14, 5, 20, 20, 20, 23, 16, 11, 26, 25, 25, 21, 19, 7, 23, 20, 16, 13, 12, 7, 26, 22, 17
 |18, 16, 16, 12, 6, 3, 16, 10, 9, 21, 18, 15, 22, 12, 7, 12, 9, 8, 17, 10, 4, 18, 15, 12, 15, 11, 6, 16, 9, 7, 23, 18, 15, 20, 13, 10, 27, 23, 14, 5, 5, 1, 17, 11, 6, 4, 3, 2, 20, 15, 10, 16, 13, 7, 24, 19, 18, 8, 4, 4, 21, 12, 9, 18, 15, 12, 25, 23, 20, 26, 18, 13, 25, 22, 21, 10, 6, 5, 13, 9, 5, 11, 11, 11, 26, 24, 24, 14, 12, 8, 19, 17, 7, 26, 18, 7, 20, 10, 4, 19, 17, 15, 29, 24, 22, 22, 22, 22, 16, 11, 4, 14, 14, 13, 7, 4, 1, 24, 17, 13, 7, 5, 5, 7, 7, 7, 4, 3, 3, 19, 14, 13, 29, 25, 19, 5, 5, 5, 12, 9, 3, 20, 15, 14, 19, 13, 11, 12, 11, 11
 |25, 21, 15, 25, 19, 14, 13, 9, 7, 20, 17, 17, 18, 11, 9, 3, 3, 2, 23, 20, 18, 18, 17, 14, 17, 11, 3, 19, 16, 14, 30, 27, 25, 20, 9, 6, 16, 12, 10, 15, 9, 9, 28, 24, 19, 24, 23, 21, 17, 9, 1, 22, 21, 16, 18, 17, 16, 27, 15, 4, 18, 15, 5, 27, 24, 23, 27, 26, 24, 24, 18, 15, 16, 15, 15, 14, 11, 4, 27, 26, 26, 10, 8, 7, 20, 20, 19, 11, 11, 11, 14, 14, 14, 15, 13, 5, 22, 20, 20, 24, 22, 18, 16, 6, 2, 14, 14, 13, 17, 13, 12, 13, 9, 7, 12, 11, 7, 5, 4, 1, 25, 23, 22, 24, 22, 18, 19, 9, 7, 21, 16, 8, 18, 17, 11, 24, 20, 15, 27, 27, 24, 17, 10, 5, 17, 8, 7, 3, 2, 2|];